Maximize
 0
Subject To
 epc_0!1: +85.71654512194803 y_1!1_2!1 -40.551421761786834 y_1!2_2!1 -34.81912295398703 y_1!3_2!1 -83.95880751065087 y_1!4_2!1 +38.88920719077376 y_1!5_2!1 -86.01636383298133 y_1!6_2!1 -36.619004594843 y_1!1_2!2 +8.005767992296313 y_1!2_2!2 +47.032858152617194 y_1!3_2!2 +24.7201813971964 y_1!4_2!2 -36.464808312025895 y_1!5_2!2 -51.6258999865977 y_1!6_2!2 +50.53976457711076 y_1!1_2!3 -46.78675105158785 y_1!2_2!3 -30.6611837358101 y_1!3_2!3 -19.31842822698509 y_1!4_2!3 -58.52463980377234 y_1!5_2!3 -84.65522566819241 y_1!6_2!3 +99.47339172569198 y_1!1_2!4 -49.66038880936474 y_1!2_2!4 +91.41580190847696 y_1!3_2!4 +51.31509539085789 y_1!4_2!4 -37.1131923377211 y_1!5_2!4 -72.75438555155198 y_1!6_2!4 -95.16514099282081 y_1!1_2!5 -2.839678722383283 y_1!2_2!5 -97.79905552965246 y_1!3_2!5 -96.25315548684141 y_1!4_2!5 +45.69635276877651 y_1!5_2!5 -32.048160469251314 y_1!6_2!5 +77.90299138671838 y_1!1_2!6 +3.114584895762505 y_1!2_2!6 +34.90840898567458 y_1!3_2!6 -87.16581173667733 y_1!4_2!6 +15.976724684856293 y_1!5_2!6 +83.68480881230457 y_1!6_2!6 + lambda_0!1 - mu_0 = 0
 epc_0!2: +8.878046084871372 y_1!1_2!1 +23.159850005140342 y_1!2_2!1 -21.956855668482774 y_1!3_2!1 -11.233995855051631 y_1!4_2!1 +92.11757013519613 y_1!5_2!1 -68.63045851513809 y_1!6_2!1 +91.49814940738315 y_1!1_2!2 -99.31463120581911 y_1!2_2!2 -45.25865932481388 y_1!3_2!2 +42.17544619362033 y_1!4_2!2 -21.73761839518184 y_1!5_2!2 +66.32896680966255 y_1!6_2!2 +53.97855320050678 y_1!1_2!3 -57.95068409476401 y_1!2_2!3 -73.62772331366976 y_1!3_2!3 -60.919313322020315 y_1!4_2!3 -69.82342684393464 y_1!5_2!3 +54.75877644808003 y_1!6_2!3 +60.8617037457484 y_1!1_2!4 -98.02846790858833 y_1!2_2!4 +12.328620367276955 y_1!3_2!4 -91.93249202557814 y_1!4_2!4 +29.69124920539116 y_1!5_2!4 -21.449049072328165 y_1!6_2!4 +69.75624495493469 y_1!1_2!5 +14.754267737741358 y_1!2_2!5 +37.785451761596164 y_1!3_2!5 +41.28012680742347 y_1!4_2!5 -23.64717555750555 y_1!5_2!5 -3.1429983356438242 y_1!6_2!5 +20.584137893677877 y_1!1_2!6 +71.35347988845169 y_1!2_2!6 -96.20563384617896 y_1!3_2!6 +32.04830963216776 y_1!4_2!6 -1.4857711663737234 y_1!5_2!6 +73.85464516205488 y_1!6_2!6 + lambda_0!2 - mu_0 = 0
 epc_0!3: -88.21245315482962 y_1!1_2!1 -27.611157436752137 y_1!2_2!1 -68.7841699478075 y_1!3_2!1 -1.194498075047946 y_1!4_2!1 +1.9839673498292 y_1!5_2!1 -76.20548639024602 y_1!6_2!1 -85.99399644817905 y_1!1_2!2 +69.31526559266848 y_1!2_2!2 +61.84716766905629 y_1!3_2!2 +36.020891179677335 y_1!4_2!2 +93.58019850367839 y_1!5_2!2 -43.50716049118315 y_1!6_2!2 -84.95116533308695 y_1!1_2!3 -73.00647093559488 y_1!2_2!3 +91.70759467168907 y_1!3_2!3 +55.70709380853208 y_1!4_2!3 +52.1212103193933 y_1!5_2!3 -7.022778955560867 y_1!6_2!3 +40.37090522463245 y_1!1_2!4 -82.1597834935104 y_1!2_2!4 +89.02894658629208 y_1!3_2!4 -54.80959154284757 y_1!4_2!4 -9.973047868488209 y_1!5_2!4 -10.795853411657205 y_1!6_2!4 -72.3426199627641 y_1!1_2!5 +71.18767120981562 y_1!2_2!5 -93.88819268177112 y_1!3_2!5 +93.80318151341046 y_1!4_2!5 -46.62636682863057 y_1!5_2!5 +18.666527569485766 y_1!6_2!5 -86.0531497268232 y_1!1_2!6 -19.40098238470857 y_1!2_2!6 +54.81669083504775 y_1!3_2!6 -50.64519841103596 y_1!4_2!6 -97.7980673981203 y_1!5_2!6 -91.56548160507208 y_1!6_2!6 + lambda_0!3 - mu_0 = 0
 epc_0!4: -10.44162596871898 y_1!1_2!1 +36.037258917506136 y_1!2_2!1 +85.03074812252908 y_1!3_2!1 -21.301495251528067 y_1!4_2!1 -60.933298714473395 y_1!5_2!1 +38.79754811270428 y_1!6_2!1 -17.898202977780173 y_1!1_2!2 +24.752286919194887 y_1!2_2!2 -42.71037054514044 y_1!3_2!2 +61.818844170688635 y_1!4_2!2 +56.254039669359855 y_1!5_2!2 -22.920947560902377 y_1!6_2!2 -20.118006077090357 y_1!1_2!3 +3.9418099368001265 y_1!2_2!3 +41.47272503913558 y_1!3_2!3 -47.13143475851862 y_1!4_2!3 +96.160434322116 y_1!5_2!3 +2.259650211039286 y_1!6_2!3 +78.37931645368053 y_1!1_2!4 -98.08518990991824 y_1!2_2!4 +58.24129152689119 y_1!3_2!4 +51.207831881639294 y_1!4_2!4 -11.951652667820895 y_1!5_2!4 +15.091697400856987 y_1!6_2!4 -98.23700099405661 y_1!1_2!5 -26.722679847938096 y_1!2_2!5 +53.11189826172733 y_1!3_2!5 -38.594599963941725 y_1!4_2!5 -67.90079523817569 y_1!5_2!5 -42.24241335274219 y_1!6_2!5 +85.05791410815274 y_1!1_2!6 +95.02960803127604 y_1!2_2!6 -20.031157050565128 y_1!3_2!6 -66.08433022805093 y_1!4_2!6 +6.628616393841909 y_1!5_2!6 +23.729943257728436 y_1!6_2!6 + lambda_0!4 - mu_0 = 0
 epc_0!5: -21.68959255736864 y_1!1_2!1 +84.87732576063354 y_1!2_2!1 +4.7905104669874135 y_1!3_2!1 +33.348754596921935 y_1!4_2!1 -97.85967889425437 y_1!5_2!1 -8.048621179369462 y_1!6_2!1 +7.736138889941117 y_1!1_2!2 +53.665442504984696 y_1!2_2!2 -80.59948742816991 y_1!3_2!2 +48.6485697645424 y_1!4_2!2 -74.08946363703546 y_1!5_2!2 +70.91764184647161 y_1!6_2!2 +71.98742071486924 y_1!1_2!3 -15.550966671225709 y_1!2_2!3 -50.94244289403409 y_1!3_2!3 -5.774161893377652 y_1!4_2!3 +36.86443752134008 y_1!5_2!3 -82.8254066330656 y_1!6_2!3 +36.04989859053228 y_1!1_2!4 -81.40167826773268 y_1!2_2!4 -71.88793219047882 y_1!3_2!4 -8.373477594900265 y_1!4_2!4 +76.6866164570896 y_1!5_2!4 -49.63297996187648 y_1!6_2!4 -57.11312830384993 y_1!1_2!5 -18.141491388399928 y_1!2_2!5 -72.5225261564209 y_1!3_2!5 +57.58669855350155 y_1!4_2!5 +73.94528885468154 y_1!5_2!5 -57.75884111028131 y_1!6_2!5 +69.07034077148901 y_1!1_2!6 -44.44620169452536 y_1!2_2!6 -38.61133510835744 y_1!3_2!6 +42.47424237701355 y_1!4_2!6 +82.97791064408597 y_1!5_2!6 +87.60116435869017 y_1!6_2!6 + lambda_0!5 - mu_0 = 0
 epc_0!6: +1.0317455916887468 y_1!1_2!1 -33.223379770446314 y_1!2_2!1 +69.7049614454009 y_1!3_2!1 -96.86405094667683 y_1!4_2!1 -29.23808713855624 y_1!5_2!1 +17.13000154449327 y_1!6_2!1 +54.75285147847288 y_1!1_2!2 -63.32755521239542 y_1!2_2!2 +37.95356559190884 y_1!3_2!2 +41.77703560294941 y_1!4_2!2 +48.389723398013416 y_1!5_2!2 -48.375224800601146 y_1!6_2!2 +62.13317348708398 y_1!1_2!3 +43.5930823945433 y_1!2_2!3 -96.66177529291058 y_1!3_2!3 +18.04703201119446 y_1!4_2!3 +44.962454538592254 y_1!5_2!3 +76.79424814413315 y_1!6_2!3 -58.15677941788275 y_1!1_2!4 -31.54333883512463 y_1!2_2!4 -46.222452837410444 y_1!3_2!4 -29.386149198994516 y_1!4_2!4 +73.47972344506564 y_1!5_2!4 +26.42426036236816 y_1!6_2!4 +62.767321875952774 y_1!1_2!5 -67.46783571204767 y_1!2_2!5 +20.053171272318508 y_1!3_2!5 +85.4197834453602 y_1!4_2!5 +53.19711996255546 y_1!5_2!5 +34.9655875862768 y_1!6_2!5 +13.99818749145922 y_1!1_2!6 -33.17873173966224 y_1!2_2!6 -35.91585525937906 y_1!3_2!6 +39.32155535106406 y_1!4_2!6 -13.317841281911583 y_1!5_2!6 +35.99247958161709 y_1!6_2!6 + lambda_0!6 - mu_0 = 0
 dc_0: x_0!1 + x_0!2 + x_0!3 + x_0!4 + x_0!5 + x_0!6 = 1
 bc_0!1: lambda_0!1 +298.7880229315111 x_0!1 <= 298.7880229315111
 bc_0!2: lambda_0!2 +298.7880229315111 x_0!2 <= 298.7880229315111
 bc_0!3: lambda_0!3 +298.7880229315111 x_0!3 <= 298.7880229315111
 bc_0!4: lambda_0!4 +298.7880229315111 x_0!4 <= 298.7880229315111
 bc_0!5: lambda_0!5 +298.7880229315111 x_0!5 <= 298.7880229315111
 bc_0!6: lambda_0!6 +298.7880229315111 x_0!6 <= 298.7880229315111
 sum_0!1: y_1!1_2!1 - x_1!1 - x_2!1 >= -1
 idk_0!1!1: y_1!1_2!1 - x_1!1 <= 0
 idk_0!1!2: y_1!1_2!1 - x_2!1 <= 0
 sum_0!2: y_1!2_2!1 - x_1!2 - x_2!1 >= -1
 idk_0!2!1: y_1!2_2!1 - x_1!2 <= 0
 idk_0!2!2: y_1!2_2!1 - x_2!1 <= 0
 sum_0!3: y_1!3_2!1 - x_1!3 - x_2!1 >= -1
 idk_0!3!1: y_1!3_2!1 - x_1!3 <= 0
 idk_0!3!2: y_1!3_2!1 - x_2!1 <= 0
 sum_0!4: y_1!4_2!1 - x_1!4 - x_2!1 >= -1
 idk_0!4!1: y_1!4_2!1 - x_1!4 <= 0
 idk_0!4!2: y_1!4_2!1 - x_2!1 <= 0
 sum_0!5: y_1!5_2!1 - x_1!5 - x_2!1 >= -1
 idk_0!5!1: y_1!5_2!1 - x_1!5 <= 0
 idk_0!5!2: y_1!5_2!1 - x_2!1 <= 0
 sum_0!6: y_1!6_2!1 - x_1!6 - x_2!1 >= -1
 idk_0!6!1: y_1!6_2!1 - x_1!6 <= 0
 idk_0!6!2: y_1!6_2!1 - x_2!1 <= 0
 sum_0!7: y_1!1_2!2 - x_1!1 - x_2!2 >= -1
 idk_0!7!1: y_1!1_2!2 - x_1!1 <= 0
 idk_0!7!2: y_1!1_2!2 - x_2!2 <= 0
 sum_0!8: y_1!2_2!2 - x_1!2 - x_2!2 >= -1
 idk_0!8!1: y_1!2_2!2 - x_1!2 <= 0
 idk_0!8!2: y_1!2_2!2 - x_2!2 <= 0
 sum_0!9: y_1!3_2!2 - x_1!3 - x_2!2 >= -1
 idk_0!9!1: y_1!3_2!2 - x_1!3 <= 0
 idk_0!9!2: y_1!3_2!2 - x_2!2 <= 0
 sum_0!10: y_1!4_2!2 - x_1!4 - x_2!2 >= -1
 idk_0!10!1: y_1!4_2!2 - x_1!4 <= 0
 idk_0!10!2: y_1!4_2!2 - x_2!2 <= 0
 sum_0!11: y_1!5_2!2 - x_1!5 - x_2!2 >= -1
 idk_0!11!1: y_1!5_2!2 - x_1!5 <= 0
 idk_0!11!2: y_1!5_2!2 - x_2!2 <= 0
 sum_0!12: y_1!6_2!2 - x_1!6 - x_2!2 >= -1
 idk_0!12!1: y_1!6_2!2 - x_1!6 <= 0
 idk_0!12!2: y_1!6_2!2 - x_2!2 <= 0
 sum_0!13: y_1!1_2!3 - x_1!1 - x_2!3 >= -1
 idk_0!13!1: y_1!1_2!3 - x_1!1 <= 0
 idk_0!13!2: y_1!1_2!3 - x_2!3 <= 0
 sum_0!14: y_1!2_2!3 - x_1!2 - x_2!3 >= -1
 idk_0!14!1: y_1!2_2!3 - x_1!2 <= 0
 idk_0!14!2: y_1!2_2!3 - x_2!3 <= 0
 sum_0!15: y_1!3_2!3 - x_1!3 - x_2!3 >= -1
 idk_0!15!1: y_1!3_2!3 - x_1!3 <= 0
 idk_0!15!2: y_1!3_2!3 - x_2!3 <= 0
 sum_0!16: y_1!4_2!3 - x_1!4 - x_2!3 >= -1
 idk_0!16!1: y_1!4_2!3 - x_1!4 <= 0
 idk_0!16!2: y_1!4_2!3 - x_2!3 <= 0
 sum_0!17: y_1!5_2!3 - x_1!5 - x_2!3 >= -1
 idk_0!17!1: y_1!5_2!3 - x_1!5 <= 0
 idk_0!17!2: y_1!5_2!3 - x_2!3 <= 0
 sum_0!18: y_1!6_2!3 - x_1!6 - x_2!3 >= -1
 idk_0!18!1: y_1!6_2!3 - x_1!6 <= 0
 idk_0!18!2: y_1!6_2!3 - x_2!3 <= 0
 sum_0!19: y_1!1_2!4 - x_1!1 - x_2!4 >= -1
 idk_0!19!1: y_1!1_2!4 - x_1!1 <= 0
 idk_0!19!2: y_1!1_2!4 - x_2!4 <= 0
 sum_0!20: y_1!2_2!4 - x_1!2 - x_2!4 >= -1
 idk_0!20!1: y_1!2_2!4 - x_1!2 <= 0
 idk_0!20!2: y_1!2_2!4 - x_2!4 <= 0
 sum_0!21: y_1!3_2!4 - x_1!3 - x_2!4 >= -1
 idk_0!21!1: y_1!3_2!4 - x_1!3 <= 0
 idk_0!21!2: y_1!3_2!4 - x_2!4 <= 0
 sum_0!22: y_1!4_2!4 - x_1!4 - x_2!4 >= -1
 idk_0!22!1: y_1!4_2!4 - x_1!4 <= 0
 idk_0!22!2: y_1!4_2!4 - x_2!4 <= 0
 sum_0!23: y_1!5_2!4 - x_1!5 - x_2!4 >= -1
 idk_0!23!1: y_1!5_2!4 - x_1!5 <= 0
 idk_0!23!2: y_1!5_2!4 - x_2!4 <= 0
 sum_0!24: y_1!6_2!4 - x_1!6 - x_2!4 >= -1
 idk_0!24!1: y_1!6_2!4 - x_1!6 <= 0
 idk_0!24!2: y_1!6_2!4 - x_2!4 <= 0
 sum_0!25: y_1!1_2!5 - x_1!1 - x_2!5 >= -1
 idk_0!25!1: y_1!1_2!5 - x_1!1 <= 0
 idk_0!25!2: y_1!1_2!5 - x_2!5 <= 0
 sum_0!26: y_1!2_2!5 - x_1!2 - x_2!5 >= -1
 idk_0!26!1: y_1!2_2!5 - x_1!2 <= 0
 idk_0!26!2: y_1!2_2!5 - x_2!5 <= 0
 sum_0!27: y_1!3_2!5 - x_1!3 - x_2!5 >= -1
 idk_0!27!1: y_1!3_2!5 - x_1!3 <= 0
 idk_0!27!2: y_1!3_2!5 - x_2!5 <= 0
 sum_0!28: y_1!4_2!5 - x_1!4 - x_2!5 >= -1
 idk_0!28!1: y_1!4_2!5 - x_1!4 <= 0
 idk_0!28!2: y_1!4_2!5 - x_2!5 <= 0
 sum_0!29: y_1!5_2!5 - x_1!5 - x_2!5 >= -1
 idk_0!29!1: y_1!5_2!5 - x_1!5 <= 0
 idk_0!29!2: y_1!5_2!5 - x_2!5 <= 0
 sum_0!30: y_1!6_2!5 - x_1!6 - x_2!5 >= -1
 idk_0!30!1: y_1!6_2!5 - x_1!6 <= 0
 idk_0!30!2: y_1!6_2!5 - x_2!5 <= 0
 sum_0!31: y_1!1_2!6 - x_1!1 - x_2!6 >= -1
 idk_0!31!1: y_1!1_2!6 - x_1!1 <= 0
 idk_0!31!2: y_1!1_2!6 - x_2!6 <= 0
 sum_0!32: y_1!2_2!6 - x_1!2 - x_2!6 >= -1
 idk_0!32!1: y_1!2_2!6 - x_1!2 <= 0
 idk_0!32!2: y_1!2_2!6 - x_2!6 <= 0
 sum_0!33: y_1!3_2!6 - x_1!3 - x_2!6 >= -1
 idk_0!33!1: y_1!3_2!6 - x_1!3 <= 0
 idk_0!33!2: y_1!3_2!6 - x_2!6 <= 0
 sum_0!34: y_1!4_2!6 - x_1!4 - x_2!6 >= -1
 idk_0!34!1: y_1!4_2!6 - x_1!4 <= 0
 idk_0!34!2: y_1!4_2!6 - x_2!6 <= 0
 sum_0!35: y_1!5_2!6 - x_1!5 - x_2!6 >= -1
 idk_0!35!1: y_1!5_2!6 - x_1!5 <= 0
 idk_0!35!2: y_1!5_2!6 - x_2!6 <= 0
 sum_0!36: y_1!6_2!6 - x_1!6 - x_2!6 >= -1
 idk_0!36!1: y_1!6_2!6 - x_1!6 <= 0
 idk_0!36!2: y_1!6_2!6 - x_2!6 <= 0
 epc_1!1: +11.644746215816355 y_0!1_2!1 +33.29967165889579 y_0!2_2!1 +43.09250123501607 y_0!3_2!1 -85.31608110931812 y_0!4_2!1 +36.05872422752242 y_0!5_2!1 +35.4484743091507 y_0!6_2!1 -58.63196498274446 y_0!1_2!2 -97.94497280043637 y_0!2_2!2 +54.80695738784877 y_0!3_2!2 +76.85763070019874 y_0!4_2!2 -46.8201686833807 y_0!5_2!2 +23.145400268242327 y_0!6_2!2 -64.5452789994079 y_0!1_2!3 +23.012302359921733 y_0!2_2!3 +51.728222151726584 y_0!3_2!3 -61.57730447443272 y_0!4_2!3 +78.98504864253789 y_0!5_2!3 -93.92644596101962 y_0!6_2!3 +99.2536145413741 y_0!1_2!4 -17.073461476059705 y_0!2_2!4 +28.26374615303274 y_0!3_2!4 -20.80735295204272 y_0!4_2!4 +52.51748077184749 y_0!5_2!4 -0.01580178813109967 y_0!6_2!4 +82.13655217865883 y_0!1_2!5 -60.442507433053905 y_0!2_2!5 -74.71805615621174 y_0!3_2!5 +65.70225718275213 y_0!4_2!5 +7.291643596646907 y_0!5_2!5 -47.40611079316399 y_0!6_2!5 -74.66365020765141 y_0!1_2!6 -72.24119117468253 y_0!2_2!6 -24.194035139175313 y_0!3_2!6 -11.873940308049342 y_0!4_2!6 +90.43970186737627 y_0!5_2!6 -58.46903184151873 y_0!6_2!6 + lambda_1!1 - mu_1 = 0
 epc_1!2: -92.66943531571967 y_0!1_2!1 -68.17855118271395 y_0!2_2!1 +4.0941810137777 y_0!3_2!1 +98.11898380457049 y_0!4_2!1 -98.14478840175886 y_0!5_2!1 +68.14583221159444 y_0!6_2!1 +89.4706795620379 y_0!1_2!2 +79.7563478621295 y_0!2_2!2 +84.76247189454807 y_0!3_2!2 +89.99143376327041 y_0!4_2!2 +27.849292802895008 y_0!5_2!2 -38.775540823730246 y_0!6_2!2 +5.519588761625926 y_0!1_2!3 -72.97135397632599 y_0!2_2!3 -92.99665749345482 y_0!3_2!3 -60.41165862293276 y_0!4_2!3 -90.70474667723217 y_0!5_2!3 -16.014508366677347 y_0!6_2!3 +59.323074426647935 y_0!1_2!4 -64.3433678020105 y_0!2_2!4 +50.42122539492718 y_0!3_2!4 -10.57456322230081 y_0!4_2!4 +29.23760731890144 y_0!5_2!4 -11.63819433037989 y_0!6_2!4 -49.229983342080615 y_0!1_2!5 -51.83820892093107 y_0!2_2!5 -78.3801737236425 y_0!3_2!5 -61.72158875065317 y_0!4_2!5 -92.2268225048856 y_0!5_2!5 +17.222766034895116 y_0!6_2!5 +41.37545099614158 y_0!1_2!6 -54.97189888606373 y_0!2_2!6 +11.20333518741414 y_0!3_2!6 -97.33968223528606 y_0!4_2!6 +23.308261647691907 y_0!5_2!6 -30.62006286810417 y_0!6_2!6 + lambda_1!2 - mu_1 = 0
 epc_1!3: +59.69701346102798 y_0!1_2!1 +2.171014222933792 y_0!2_2!1 +50.43537179005608 y_0!3_2!1 +14.673680484231028 y_0!4_2!1 -87.4344788188356 y_0!5_2!1 +61.7556365877123 y_0!6_2!1 -22.32960525469032 y_0!1_2!2 +84.15954027638514 y_0!2_2!2 -45.09327007353286 y_0!3_2!2 -56.418053376997634 y_0!4_2!2 -53.79386804477902 y_0!5_2!2 -68.36711234410717 y_0!6_2!2 +47.96192033308387 y_0!1_2!3 +98.22382138044588 y_0!2_2!3 +15.519014581892861 y_0!3_2!3 -77.66532060755287 y_0!4_2!3 -45.02488997579235 y_0!5_2!3 -95.59771579609703 y_0!6_2!3 +39.5395164285554 y_0!1_2!4 -72.36816114990634 y_0!2_2!4 -17.62010503619716 y_0!3_2!4 -47.72306274498956 y_0!4_2!4 +33.882382963696045 y_0!5_2!4 +50.20321697423992 y_0!6_2!4 +67.85448464158048 y_0!1_2!5 +2.903302972818423 y_0!2_2!5 +89.04427047884622 y_0!3_2!5 -7.436286099609887 y_0!4_2!5 -10.160172829647479 y_0!5_2!5 +68.76780792137208 y_0!6_2!5 -81.84166805188029 y_0!1_2!6 -34.90685585942434 y_0!2_2!6 +99.01966995844802 y_0!3_2!6 -16.805749665675563 y_0!4_2!6 -84.58150164934648 y_0!5_2!6 -96.86284167943076 y_0!6_2!6 + lambda_1!3 - mu_1 = 0
 epc_1!4: -38.44928721677443 y_0!1_2!1 -63.39315332414424 y_0!2_2!1 +43.13465397314587 y_0!3_2!1 -55.45971244216141 y_0!4_2!1 +76.01246452963352 y_0!5_2!1 -9.390723796067178 y_0!6_2!1 -83.22743077988667 y_0!1_2!2 +82.81512226253179 y_0!2_2!2 -28.617465597062534 y_0!3_2!2 -71.29388666593373 y_0!4_2!2 +29.066342189148685 y_0!5_2!2 +58.19482115819227 y_0!6_2!2 +22.30081215453241 y_0!1_2!3 +17.476848190331594 y_0!2_2!3 -18.375522227968702 y_0!3_2!3 -52.68946005762156 y_0!4_2!3 +67.80897333184538 y_0!5_2!3 +28.93972442523983 y_0!6_2!3 -72.6084419156766 y_0!1_2!4 -42.68398130142808 y_0!2_2!4 -25.802529290206138 y_0!3_2!4 +90.00332692618653 y_0!4_2!4 -26.26783114373137 y_0!5_2!4 +47.41575986420071 y_0!6_2!4 +81.46421684980939 y_0!1_2!5 -16.8669644520739 y_0!2_2!5 -70.47668117020798 y_0!3_2!5 +89.40836294425648 y_0!4_2!5 +75.19004168040405 y_0!5_2!5 -12.202415024825086 y_0!6_2!5 +2.9680325087847024 y_0!1_2!6 -21.42360755028092 y_0!2_2!6 -34.1548648326027 y_0!3_2!6 +88.00093545655369 y_0!4_2!6 +57.02880707651474 y_0!5_2!6 -82.94292139217137 y_0!6_2!6 + lambda_1!4 - mu_1 = 0
 epc_1!5: -97.71987954471064 y_0!1_2!1 -95.71466339606818 y_0!2_2!1 +0.3899156789289009 y_0!3_2!1 +35.58457553782915 y_0!4_2!1 -2.4668461227806517 y_0!5_2!1 -79.26334434915961 y_0!6_2!1 -86.62192879078223 y_0!1_2!2 +51.31914644435406 y_0!2_2!2 -89.08602053398185 y_0!3_2!2 -86.30998552892997 y_0!4_2!2 +39.940088036151366 y_0!5_2!2 +3.146202161956424 y_0!6_2!2 -73.99311486768126 y_0!1_2!3 -25.399915517142446 y_0!2_2!3 -36.887279843358996 y_0!3_2!3 +22.275150634735994 y_0!4_2!3 +89.89429759467583 y_0!5_2!3 -33.80423183602994 y_0!6_2!3 +24.991466280690915 y_0!1_2!4 -60.937928749400136 y_0!2_2!4 +85.99790617230707 y_0!3_2!4 -38.134972803951904 y_0!4_2!4 +49.30366118915114 y_0!5_2!4 +91.6035728725625 y_0!6_2!4 +44.62014832120059 y_0!1_2!5 +45.51513582730249 y_0!2_2!5 +30.263955443202462 y_0!3_2!5 -62.0949525677988 y_0!4_2!5 +23.89677736678229 y_0!5_2!5 +20.405808168876362 y_0!6_2!5 -12.936707633981158 y_0!1_2!6 +51.26358137864574 y_0!2_2!6 -47.87777919819875 y_0!3_2!6 -48.210174076242176 y_0!4_2!6 +15.940596548104494 y_0!5_2!6 +69.49711492639199 y_0!6_2!6 + lambda_1!5 - mu_1 = 0
 epc_1!6: +98.99044999877577 y_0!1_2!1 +65.21967141459339 y_0!2_2!1 +5.448292366091195 y_0!3_2!1 -93.16212500767315 y_0!4_2!1 +61.86744787763402 y_0!5_2!1 +77.47397594335351 y_0!6_2!1 +94.9433133417316 y_0!1_2!2 -63.33129759592904 y_0!2_2!2 +9.792319359131938 y_0!3_2!2 -33.4547346895464 y_0!4_2!2 -97.97794628592065 y_0!5_2!2 -9.957818831527732 y_0!6_2!2 +35.03079733450531 y_0!1_2!3 -72.44626878731029 y_0!2_2!3 -64.77423954008172 y_0!3_2!3 -47.83025952157824 y_0!4_2!3 +82.78872619151008 y_0!5_2!3 +45.33971351842442 y_0!6_2!3 -7.375000890914691 y_0!1_2!4 +80.08128561836247 y_0!2_2!4 +30.366112606035358 y_0!3_2!4 +21.758418525829356 y_0!4_2!4 +11.569575602065441 y_0!5_2!4 -70.80685513157235 y_0!6_2!4 +46.08739772747356 y_0!1_2!5 +1.4317768511271254 y_0!2_2!5 +99.87208328488043 y_0!3_2!5 +93.9665030451284 y_0!4_2!5 -1.1092285641010307 y_0!5_2!5 +30.30167952058818 y_0!6_2!5 +79.03781226948561 y_0!1_2!6 -75.488701192444 y_0!2_2!6 +15.741271308750157 y_0!3_2!6 +88.05302544364883 y_0!4_2!6 +19.87541252143292 y_0!5_2!6 -5.173151254177014 y_0!6_2!6 + lambda_1!6 - mu_1 = 0
 dc_1: x_1!1 + x_1!2 + x_1!3 + x_1!4 + x_1!5 + x_1!6 = 1
 bc_1!1: lambda_1!1 +298.7880229315111 x_1!1 <= 298.7880229315111
 bc_1!2: lambda_1!2 +298.7880229315111 x_1!2 <= 298.7880229315111
 bc_1!3: lambda_1!3 +298.7880229315111 x_1!3 <= 298.7880229315111
 bc_1!4: lambda_1!4 +298.7880229315111 x_1!4 <= 298.7880229315111
 bc_1!5: lambda_1!5 +298.7880229315111 x_1!5 <= 298.7880229315111
 bc_1!6: lambda_1!6 +298.7880229315111 x_1!6 <= 298.7880229315111
 sum_1!1: y_0!1_2!1 - x_0!1 - x_2!1 >= -1
 idk_1!1!0: y_0!1_2!1 - x_0!1 <= 0
 idk_1!1!2: y_0!1_2!1 - x_2!1 <= 0
 sum_1!2: y_0!2_2!1 - x_0!2 - x_2!1 >= -1
 idk_1!2!0: y_0!2_2!1 - x_0!2 <= 0
 idk_1!2!2: y_0!2_2!1 - x_2!1 <= 0
 sum_1!3: y_0!3_2!1 - x_0!3 - x_2!1 >= -1
 idk_1!3!0: y_0!3_2!1 - x_0!3 <= 0
 idk_1!3!2: y_0!3_2!1 - x_2!1 <= 0
 sum_1!4: y_0!4_2!1 - x_0!4 - x_2!1 >= -1
 idk_1!4!0: y_0!4_2!1 - x_0!4 <= 0
 idk_1!4!2: y_0!4_2!1 - x_2!1 <= 0
 sum_1!5: y_0!5_2!1 - x_0!5 - x_2!1 >= -1
 idk_1!5!0: y_0!5_2!1 - x_0!5 <= 0
 idk_1!5!2: y_0!5_2!1 - x_2!1 <= 0
 sum_1!6: y_0!6_2!1 - x_0!6 - x_2!1 >= -1
 idk_1!6!0: y_0!6_2!1 - x_0!6 <= 0
 idk_1!6!2: y_0!6_2!1 - x_2!1 <= 0
 sum_1!7: y_0!1_2!2 - x_0!1 - x_2!2 >= -1
 idk_1!7!0: y_0!1_2!2 - x_0!1 <= 0
 idk_1!7!2: y_0!1_2!2 - x_2!2 <= 0
 sum_1!8: y_0!2_2!2 - x_0!2 - x_2!2 >= -1
 idk_1!8!0: y_0!2_2!2 - x_0!2 <= 0
 idk_1!8!2: y_0!2_2!2 - x_2!2 <= 0
 sum_1!9: y_0!3_2!2 - x_0!3 - x_2!2 >= -1
 idk_1!9!0: y_0!3_2!2 - x_0!3 <= 0
 idk_1!9!2: y_0!3_2!2 - x_2!2 <= 0
 sum_1!10: y_0!4_2!2 - x_0!4 - x_2!2 >= -1
 idk_1!10!0: y_0!4_2!2 - x_0!4 <= 0
 idk_1!10!2: y_0!4_2!2 - x_2!2 <= 0
 sum_1!11: y_0!5_2!2 - x_0!5 - x_2!2 >= -1
 idk_1!11!0: y_0!5_2!2 - x_0!5 <= 0
 idk_1!11!2: y_0!5_2!2 - x_2!2 <= 0
 sum_1!12: y_0!6_2!2 - x_0!6 - x_2!2 >= -1
 idk_1!12!0: y_0!6_2!2 - x_0!6 <= 0
 idk_1!12!2: y_0!6_2!2 - x_2!2 <= 0
 sum_1!13: y_0!1_2!3 - x_0!1 - x_2!3 >= -1
 idk_1!13!0: y_0!1_2!3 - x_0!1 <= 0
 idk_1!13!2: y_0!1_2!3 - x_2!3 <= 0
 sum_1!14: y_0!2_2!3 - x_0!2 - x_2!3 >= -1
 idk_1!14!0: y_0!2_2!3 - x_0!2 <= 0
 idk_1!14!2: y_0!2_2!3 - x_2!3 <= 0
 sum_1!15: y_0!3_2!3 - x_0!3 - x_2!3 >= -1
 idk_1!15!0: y_0!3_2!3 - x_0!3 <= 0
 idk_1!15!2: y_0!3_2!3 - x_2!3 <= 0
 sum_1!16: y_0!4_2!3 - x_0!4 - x_2!3 >= -1
 idk_1!16!0: y_0!4_2!3 - x_0!4 <= 0
 idk_1!16!2: y_0!4_2!3 - x_2!3 <= 0
 sum_1!17: y_0!5_2!3 - x_0!5 - x_2!3 >= -1
 idk_1!17!0: y_0!5_2!3 - x_0!5 <= 0
 idk_1!17!2: y_0!5_2!3 - x_2!3 <= 0
 sum_1!18: y_0!6_2!3 - x_0!6 - x_2!3 >= -1
 idk_1!18!0: y_0!6_2!3 - x_0!6 <= 0
 idk_1!18!2: y_0!6_2!3 - x_2!3 <= 0
 sum_1!19: y_0!1_2!4 - x_0!1 - x_2!4 >= -1
 idk_1!19!0: y_0!1_2!4 - x_0!1 <= 0
 idk_1!19!2: y_0!1_2!4 - x_2!4 <= 0
 sum_1!20: y_0!2_2!4 - x_0!2 - x_2!4 >= -1
 idk_1!20!0: y_0!2_2!4 - x_0!2 <= 0
 idk_1!20!2: y_0!2_2!4 - x_2!4 <= 0
 sum_1!21: y_0!3_2!4 - x_0!3 - x_2!4 >= -1
 idk_1!21!0: y_0!3_2!4 - x_0!3 <= 0
 idk_1!21!2: y_0!3_2!4 - x_2!4 <= 0
 sum_1!22: y_0!4_2!4 - x_0!4 - x_2!4 >= -1
 idk_1!22!0: y_0!4_2!4 - x_0!4 <= 0
 idk_1!22!2: y_0!4_2!4 - x_2!4 <= 0
 sum_1!23: y_0!5_2!4 - x_0!5 - x_2!4 >= -1
 idk_1!23!0: y_0!5_2!4 - x_0!5 <= 0
 idk_1!23!2: y_0!5_2!4 - x_2!4 <= 0
 sum_1!24: y_0!6_2!4 - x_0!6 - x_2!4 >= -1
 idk_1!24!0: y_0!6_2!4 - x_0!6 <= 0
 idk_1!24!2: y_0!6_2!4 - x_2!4 <= 0
 sum_1!25: y_0!1_2!5 - x_0!1 - x_2!5 >= -1
 idk_1!25!0: y_0!1_2!5 - x_0!1 <= 0
 idk_1!25!2: y_0!1_2!5 - x_2!5 <= 0
 sum_1!26: y_0!2_2!5 - x_0!2 - x_2!5 >= -1
 idk_1!26!0: y_0!2_2!5 - x_0!2 <= 0
 idk_1!26!2: y_0!2_2!5 - x_2!5 <= 0
 sum_1!27: y_0!3_2!5 - x_0!3 - x_2!5 >= -1
 idk_1!27!0: y_0!3_2!5 - x_0!3 <= 0
 idk_1!27!2: y_0!3_2!5 - x_2!5 <= 0
 sum_1!28: y_0!4_2!5 - x_0!4 - x_2!5 >= -1
 idk_1!28!0: y_0!4_2!5 - x_0!4 <= 0
 idk_1!28!2: y_0!4_2!5 - x_2!5 <= 0
 sum_1!29: y_0!5_2!5 - x_0!5 - x_2!5 >= -1
 idk_1!29!0: y_0!5_2!5 - x_0!5 <= 0
 idk_1!29!2: y_0!5_2!5 - x_2!5 <= 0
 sum_1!30: y_0!6_2!5 - x_0!6 - x_2!5 >= -1
 idk_1!30!0: y_0!6_2!5 - x_0!6 <= 0
 idk_1!30!2: y_0!6_2!5 - x_2!5 <= 0
 sum_1!31: y_0!1_2!6 - x_0!1 - x_2!6 >= -1
 idk_1!31!0: y_0!1_2!6 - x_0!1 <= 0
 idk_1!31!2: y_0!1_2!6 - x_2!6 <= 0
 sum_1!32: y_0!2_2!6 - x_0!2 - x_2!6 >= -1
 idk_1!32!0: y_0!2_2!6 - x_0!2 <= 0
 idk_1!32!2: y_0!2_2!6 - x_2!6 <= 0
 sum_1!33: y_0!3_2!6 - x_0!3 - x_2!6 >= -1
 idk_1!33!0: y_0!3_2!6 - x_0!3 <= 0
 idk_1!33!2: y_0!3_2!6 - x_2!6 <= 0
 sum_1!34: y_0!4_2!6 - x_0!4 - x_2!6 >= -1
 idk_1!34!0: y_0!4_2!6 - x_0!4 <= 0
 idk_1!34!2: y_0!4_2!6 - x_2!6 <= 0
 sum_1!35: y_0!5_2!6 - x_0!5 - x_2!6 >= -1
 idk_1!35!0: y_0!5_2!6 - x_0!5 <= 0
 idk_1!35!2: y_0!5_2!6 - x_2!6 <= 0
 sum_1!36: y_0!6_2!6 - x_0!6 - x_2!6 >= -1
 idk_1!36!0: y_0!6_2!6 - x_0!6 <= 0
 idk_1!36!2: y_0!6_2!6 - x_2!6 <= 0
 epc_2!1: -65.20641003916589 y_0!1_1!1 -62.19861101015456 y_0!2_1!1 +15.907176237931097 y_0!3_1!1 +57.56093639590301 y_0!4_1!1 -3.7457891213657604 y_0!5_1!1 -41.2278669118282 y_0!6_1!1 +26.493609763554304 y_0!1_1!2 -72.83106571188394 y_0!2_1!2 +96.0082297406272 y_0!3_1!2 -74.43882275086793 y_0!4_1!2 +8.515008505741363 y_0!5_1!2 -96.72080285584022 y_0!6_1!2 +6.661266877181021 y_0!1_1!3 -42.99118345081847 y_0!2_1!3 +39.3356788114983 y_0!3_1!3 +37.99087153356905 y_0!4_1!3 +49.35581321652364 y_0!5_1!3 +64.58896031763902 y_0!6_1!3 -49.95127774601571 y_0!1_1!4 -10.190742756558805 y_0!2_1!4 +39.24366080754132 y_0!3_1!4 +14.900488320892748 y_0!4_1!4 +97.44812442731887 y_0!5_1!4 -71.04009935386023 y_0!6_1!4 -40.543399508412705 y_0!1_1!5 -91.3136240043878 y_0!2_1!5 +8.197198350315162 y_0!3_1!5 -77.90639957558203 y_0!4_1!5 -14.018623691186377 y_0!5_1!5 -42.96150097655029 y_0!6_1!5 +68.08774202458216 y_0!1_1!6 +23.62234658150888 y_0!2_1!6 +10.259009240134276 y_0!3_1!6 +64.54767605026689 y_0!4_1!6 -74.42679900471651 y_0!5_1!6 +26.902648482315698 y_0!6_1!6 + lambda_2!1 - mu_2 = 0
 epc_2!2: -75.50742432080864 y_0!1_1!1 +2.010055069912582 y_0!2_1!1 +68.798272921799 y_0!3_1!1 +98.20948028111789 y_0!4_1!1 +46.561643642619515 y_0!5_1!1 -32.09760012352025 y_0!6_1!1 -80.86358458562711 y_0!1_1!2 -70.07954468547604 y_0!2_1!2 -32.89432579082107 y_0!3_1!2 -1.8094006881764386 y_0!4_1!2 -38.214176612666726 y_0!5_1!2 +6.556451783821785 y_0!6_1!2 +0.7525962940919868 y_0!1_1!3 -11.862920399497739 y_0!2_1!3 -94.73656281522382 y_0!3_1!3 +78.30159236609268 y_0!4_1!3 -83.36692347775664 y_0!5_1!3 +37.62451777211783 y_0!6_1!3 +26.675654248367195 y_0!1_1!4 -18.648201855205897 y_0!2_1!4 -89.76520014989936 y_0!3_1!4 +23.11470021205831 y_0!4_1!4 -81.56649793201854 y_0!5_1!4 -67.08202541328262 y_0!6_1!4 +59.315331197687385 y_0!1_1!5 -65.28698138720581 y_0!2_1!5 +4.619011098238943 y_0!3_1!5 -39.06375118427445 y_0!4_1!5 -18.99384772518819 y_0!5_1!5 -4.08936392498407 y_0!6_1!5 +41.49867145849754 y_0!1_1!6 +4.5143409850870455 y_0!2_1!6 +75.40441897233643 y_0!3_1!6 -93.57214858411682 y_0!4_1!6 -43.28113444291406 y_0!5_1!6 +40.86964427261438 y_0!6_1!6 + lambda_2!2 - mu_2 = 0
 epc_2!3: +2.8632088464973293 y_0!1_1!1 -84.8161246811526 y_0!2_1!1 +15.50726380991037 y_0!3_1!1 -42.0087582977916 y_0!4_1!1 +97.85498294988957 y_0!5_1!1 +40.76967865245629 y_0!6_1!1 +29.743218248599902 y_0!1_1!2 -0.5154063123582091 y_0!2_1!2 +71.69709474969656 y_0!3_1!2 +10.902216208163807 y_0!4_1!2 -52.95076328221376 y_0!5_1!2 +59.03414883203217 y_0!6_1!2 -0.4078062372149702 y_0!1_1!3 -9.81017148702486 y_0!2_1!3 +72.09474603097593 y_0!3_1!3 +96.64579620990742 y_0!4_1!3 +24.350516345830613 y_0!5_1!3 -92.85975151734476 y_0!6_1!3 -18.90770339043182 y_0!1_1!4 +87.30756526273763 y_0!2_1!4 +39.8250387439212 y_0!3_1!4 -23.305840982662303 y_0!4_1!4 +93.00557080473183 y_0!5_1!4 -5.066421364172015 y_0!6_1!4 +41.50453836261636 y_0!1_1!5 +43.668811215303094 y_0!2_1!5 +57.277489894813016 y_0!3_1!5 +90.43278303967125 y_0!4_1!5 +49.87377722691525 y_0!5_1!5 +45.34782069244886 y_0!6_1!5 +7.925856439558004 y_0!1_1!6 -97.52940957474803 y_0!2_1!6 -75.9361245460431 y_0!3_1!6 +8.05472975038235 y_0!4_1!6 -82.3569906874513 y_0!5_1!6 +2.968116349463969 y_0!6_1!6 + lambda_2!3 - mu_2 = 0
 epc_2!4: -11.019721983449585 y_0!1_1!1 -47.10037163583651 y_0!2_1!1 -36.92499034724255 y_0!3_1!1 +86.61023715629929 y_0!4_1!1 -1.490513929938615 y_0!5_1!1 +89.98952475923713 y_0!6_1!1 -16.255023220320524 y_0!1_1!2 +4.610288938529152 y_0!2_1!2 -49.42994583621545 y_0!3_1!2 -71.7551661782233 y_0!4_1!2 -17.875768385427747 y_0!5_1!2 -42.294258779085325 y_0!6_1!2 +56.68721261912236 y_0!1_1!3 +19.565909386392065 y_0!2_1!3 -28.856053091968818 y_0!3_1!3 -58.16418850372158 y_0!4_1!3 -50.56532020546855 y_0!5_1!3 -8.554997548670357 y_0!6_1!3 -72.02084113994744 y_0!1_1!4 -27.821522090630538 y_0!2_1!4 -14.498814175153612 y_0!3_1!4 -98.77923098590125 y_0!4_1!4 -40.774120917080126 y_0!5_1!4 -12.799011416877406 y_0!6_1!4 +70.30337879461433 y_0!1_1!5 -31.976200993049446 y_0!2_1!5 +22.63135965427398 y_0!3_1!5 +54.104399689777864 y_0!4_1!5 -8.019231446395978 y_0!5_1!5 +5.063408325441898 y_0!6_1!5 +84.32634462257707 y_0!1_1!6 -39.480563172805574 y_0!2_1!6 +8.272516293702765 y_0!3_1!6 -14.742636735243181 y_0!4_1!6 +18.04743482137266 y_0!5_1!6 +84.53728176748169 y_0!6_1!6 + lambda_2!4 - mu_2 = 0
 epc_2!5: -20.810199771137206 y_0!1_1!1 -72.6922234146189 y_0!2_1!1 +74.12667667818002 y_0!3_1!1 -13.864268381881743 y_0!4_1!1 +81.56176337912191 y_0!5_1!1 +87.17810010004848 y_0!6_1!1 -38.9355599896287 y_0!1_1!2 +57.787489971660364 y_0!2_1!2 +78.44685303167623 y_0!3_1!2 +81.52748413205956 y_0!4_1!2 +91.29090538974259 y_0!5_1!2 +10.51404167002201 y_0!6_1!2 +47.065664492230354 y_0!1_1!3 +55.010590064292245 y_0!2_1!3 -54.73957539813401 y_0!3_1!3 -46.12486034541272 y_0!4_1!3 -6.674704722437255 y_0!5_1!3 -67.54770731445078 y_0!6_1!3 +4.312077179137603 y_0!1_1!4 -45.639582144051595 y_0!2_1!4 +99.16935856674539 y_0!3_1!4 -30.241630993295843 y_0!4_1!4 +92.76884148144941 y_0!5_1!4 +26.376252773573626 y_0!6_1!4 +60.90186869819962 y_0!1_1!5 +34.02487309485417 y_0!2_1!5 +53.536885632126115 y_0!3_1!5 -76.5024445472747 y_0!4_1!5 +82.29722061461467 y_0!5_1!5 -96.3396739697019 y_0!6_1!5 +59.00549026360579 y_0!1_1!6 +54.88075650904668 y_0!2_1!6 -14.277417531153773 y_0!3_1!6 -16.563437695826337 y_0!4_1!6 -69.6627945999168 y_0!5_1!6 -47.28926952887675 y_0!6_1!6 + lambda_2!5 - mu_2 = 0
 epc_2!6: -2.3368505131603428 y_0!1_1!1 -22.764482498959964 y_0!2_1!1 +3.2768837925202234 y_0!3_1!1 -38.718921889700184 y_0!4_1!1 +51.9545964372511 y_0!5_1!1 +52.860884847040154 y_0!6_1!1 -62.60261644239424 y_0!1_1!2 +6.783677056295673 y_0!2_1!2 -65.30869423224755 y_0!3_1!2 +68.63507934474939 y_0!4_1!2 +18.23863940877672 y_0!5_1!2 +39.10998709738155 y_0!6_1!2 +69.19293364786012 y_0!1_1!3 -89.3964397814785 y_0!2_1!3 -51.913990513205064 y_0!3_1!3 +12.943164747858589 y_0!4_1!3 +7.575931652835905 y_0!5_1!3 -87.97996911996064 y_0!6_1!3 +61.17279225896837 y_0!1_1!4 +95.14658405192438 y_0!2_1!4 -42.60930389280411 y_0!3_1!4 +93.38777186491487 y_0!4_1!4 -67.11911787616873 y_0!5_1!4 -51.068994668297904 y_0!6_1!4 -72.55083147270227 y_0!1_1!5 -28.316307344926912 y_0!2_1!5 +80.05263362730955 y_0!3_1!5 +52.50903199108464 y_0!4_1!5 -73.61839846751532 y_0!5_1!5 -58.506546586207534 y_0!6_1!5 +70.81596567409287 y_0!1_1!6 +60.92226446416802 y_0!2_1!6 +90.6254847239787 y_0!3_1!6 -71.36250187461806 y_0!4_1!6 +77.3639581552292 y_0!5_1!6 +14.452916146348912 y_0!6_1!6 + lambda_2!6 - mu_2 = 0
 dc_2: x_2!1 + x_2!2 + x_2!3 + x_2!4 + x_2!5 + x_2!6 = 1
 bc_2!1: lambda_2!1 +298.7880229315111 x_2!1 <= 298.7880229315111
 bc_2!2: lambda_2!2 +298.7880229315111 x_2!2 <= 298.7880229315111
 bc_2!3: lambda_2!3 +298.7880229315111 x_2!3 <= 298.7880229315111
 bc_2!4: lambda_2!4 +298.7880229315111 x_2!4 <= 298.7880229315111
 bc_2!5: lambda_2!5 +298.7880229315111 x_2!5 <= 298.7880229315111
 bc_2!6: lambda_2!6 +298.7880229315111 x_2!6 <= 298.7880229315111
 sum_2!1: y_0!1_1!1 - x_0!1 - x_1!1 >= -1
 idk_2!1!0: y_0!1_1!1 - x_0!1 <= 0
 idk_2!1!1: y_0!1_1!1 - x_1!1 <= 0
 sum_2!2: y_0!2_1!1 - x_0!2 - x_1!1 >= -1
 idk_2!2!0: y_0!2_1!1 - x_0!2 <= 0
 idk_2!2!1: y_0!2_1!1 - x_1!1 <= 0
 sum_2!3: y_0!3_1!1 - x_0!3 - x_1!1 >= -1
 idk_2!3!0: y_0!3_1!1 - x_0!3 <= 0
 idk_2!3!1: y_0!3_1!1 - x_1!1 <= 0
 sum_2!4: y_0!4_1!1 - x_0!4 - x_1!1 >= -1
 idk_2!4!0: y_0!4_1!1 - x_0!4 <= 0
 idk_2!4!1: y_0!4_1!1 - x_1!1 <= 0
 sum_2!5: y_0!5_1!1 - x_0!5 - x_1!1 >= -1
 idk_2!5!0: y_0!5_1!1 - x_0!5 <= 0
 idk_2!5!1: y_0!5_1!1 - x_1!1 <= 0
 sum_2!6: y_0!6_1!1 - x_0!6 - x_1!1 >= -1
 idk_2!6!0: y_0!6_1!1 - x_0!6 <= 0
 idk_2!6!1: y_0!6_1!1 - x_1!1 <= 0
 sum_2!7: y_0!1_1!2 - x_0!1 - x_1!2 >= -1
 idk_2!7!0: y_0!1_1!2 - x_0!1 <= 0
 idk_2!7!1: y_0!1_1!2 - x_1!2 <= 0
 sum_2!8: y_0!2_1!2 - x_0!2 - x_1!2 >= -1
 idk_2!8!0: y_0!2_1!2 - x_0!2 <= 0
 idk_2!8!1: y_0!2_1!2 - x_1!2 <= 0
 sum_2!9: y_0!3_1!2 - x_0!3 - x_1!2 >= -1
 idk_2!9!0: y_0!3_1!2 - x_0!3 <= 0
 idk_2!9!1: y_0!3_1!2 - x_1!2 <= 0
 sum_2!10: y_0!4_1!2 - x_0!4 - x_1!2 >= -1
 idk_2!10!0: y_0!4_1!2 - x_0!4 <= 0
 idk_2!10!1: y_0!4_1!2 - x_1!2 <= 0
 sum_2!11: y_0!5_1!2 - x_0!5 - x_1!2 >= -1
 idk_2!11!0: y_0!5_1!2 - x_0!5 <= 0
 idk_2!11!1: y_0!5_1!2 - x_1!2 <= 0
 sum_2!12: y_0!6_1!2 - x_0!6 - x_1!2 >= -1
 idk_2!12!0: y_0!6_1!2 - x_0!6 <= 0
 idk_2!12!1: y_0!6_1!2 - x_1!2 <= 0
 sum_2!13: y_0!1_1!3 - x_0!1 - x_1!3 >= -1
 idk_2!13!0: y_0!1_1!3 - x_0!1 <= 0
 idk_2!13!1: y_0!1_1!3 - x_1!3 <= 0
 sum_2!14: y_0!2_1!3 - x_0!2 - x_1!3 >= -1
 idk_2!14!0: y_0!2_1!3 - x_0!2 <= 0
 idk_2!14!1: y_0!2_1!3 - x_1!3 <= 0
 sum_2!15: y_0!3_1!3 - x_0!3 - x_1!3 >= -1
 idk_2!15!0: y_0!3_1!3 - x_0!3 <= 0
 idk_2!15!1: y_0!3_1!3 - x_1!3 <= 0
 sum_2!16: y_0!4_1!3 - x_0!4 - x_1!3 >= -1
 idk_2!16!0: y_0!4_1!3 - x_0!4 <= 0
 idk_2!16!1: y_0!4_1!3 - x_1!3 <= 0
 sum_2!17: y_0!5_1!3 - x_0!5 - x_1!3 >= -1
 idk_2!17!0: y_0!5_1!3 - x_0!5 <= 0
 idk_2!17!1: y_0!5_1!3 - x_1!3 <= 0
 sum_2!18: y_0!6_1!3 - x_0!6 - x_1!3 >= -1
 idk_2!18!0: y_0!6_1!3 - x_0!6 <= 0
 idk_2!18!1: y_0!6_1!3 - x_1!3 <= 0
 sum_2!19: y_0!1_1!4 - x_0!1 - x_1!4 >= -1
 idk_2!19!0: y_0!1_1!4 - x_0!1 <= 0
 idk_2!19!1: y_0!1_1!4 - x_1!4 <= 0
 sum_2!20: y_0!2_1!4 - x_0!2 - x_1!4 >= -1
 idk_2!20!0: y_0!2_1!4 - x_0!2 <= 0
 idk_2!20!1: y_0!2_1!4 - x_1!4 <= 0
 sum_2!21: y_0!3_1!4 - x_0!3 - x_1!4 >= -1
 idk_2!21!0: y_0!3_1!4 - x_0!3 <= 0
 idk_2!21!1: y_0!3_1!4 - x_1!4 <= 0
 sum_2!22: y_0!4_1!4 - x_0!4 - x_1!4 >= -1
 idk_2!22!0: y_0!4_1!4 - x_0!4 <= 0
 idk_2!22!1: y_0!4_1!4 - x_1!4 <= 0
 sum_2!23: y_0!5_1!4 - x_0!5 - x_1!4 >= -1
 idk_2!23!0: y_0!5_1!4 - x_0!5 <= 0
 idk_2!23!1: y_0!5_1!4 - x_1!4 <= 0
 sum_2!24: y_0!6_1!4 - x_0!6 - x_1!4 >= -1
 idk_2!24!0: y_0!6_1!4 - x_0!6 <= 0
 idk_2!24!1: y_0!6_1!4 - x_1!4 <= 0
 sum_2!25: y_0!1_1!5 - x_0!1 - x_1!5 >= -1
 idk_2!25!0: y_0!1_1!5 - x_0!1 <= 0
 idk_2!25!1: y_0!1_1!5 - x_1!5 <= 0
 sum_2!26: y_0!2_1!5 - x_0!2 - x_1!5 >= -1
 idk_2!26!0: y_0!2_1!5 - x_0!2 <= 0
 idk_2!26!1: y_0!2_1!5 - x_1!5 <= 0
 sum_2!27: y_0!3_1!5 - x_0!3 - x_1!5 >= -1
 idk_2!27!0: y_0!3_1!5 - x_0!3 <= 0
 idk_2!27!1: y_0!3_1!5 - x_1!5 <= 0
 sum_2!28: y_0!4_1!5 - x_0!4 - x_1!5 >= -1
 idk_2!28!0: y_0!4_1!5 - x_0!4 <= 0
 idk_2!28!1: y_0!4_1!5 - x_1!5 <= 0
 sum_2!29: y_0!5_1!5 - x_0!5 - x_1!5 >= -1
 idk_2!29!0: y_0!5_1!5 - x_0!5 <= 0
 idk_2!29!1: y_0!5_1!5 - x_1!5 <= 0
 sum_2!30: y_0!6_1!5 - x_0!6 - x_1!5 >= -1
 idk_2!30!0: y_0!6_1!5 - x_0!6 <= 0
 idk_2!30!1: y_0!6_1!5 - x_1!5 <= 0
 sum_2!31: y_0!1_1!6 - x_0!1 - x_1!6 >= -1
 idk_2!31!0: y_0!1_1!6 - x_0!1 <= 0
 idk_2!31!1: y_0!1_1!6 - x_1!6 <= 0
 sum_2!32: y_0!2_1!6 - x_0!2 - x_1!6 >= -1
 idk_2!32!0: y_0!2_1!6 - x_0!2 <= 0
 idk_2!32!1: y_0!2_1!6 - x_1!6 <= 0
 sum_2!33: y_0!3_1!6 - x_0!3 - x_1!6 >= -1
 idk_2!33!0: y_0!3_1!6 - x_0!3 <= 0
 idk_2!33!1: y_0!3_1!6 - x_1!6 <= 0
 sum_2!34: y_0!4_1!6 - x_0!4 - x_1!6 >= -1
 idk_2!34!0: y_0!4_1!6 - x_0!4 <= 0
 idk_2!34!1: y_0!4_1!6 - x_1!6 <= 0
 sum_2!35: y_0!5_1!6 - x_0!5 - x_1!6 >= -1
 idk_2!35!0: y_0!5_1!6 - x_0!5 <= 0
 idk_2!35!1: y_0!5_1!6 - x_1!6 <= 0
 sum_2!36: y_0!6_1!6 - x_0!6 - x_1!6 >= -1
 idk_2!36!0: y_0!6_1!6 - x_0!6 <= 0
 idk_2!36!1: y_0!6_1!6 - x_1!6 <= 0
Bounds
 mu_0 free
 mu_1 free
 mu_2 free
Binary
 x_0!1 x_0!2 x_0!3 x_0!4 x_0!5 x_0!6 x_1!1 x_1!2 x_1!3 x_1!4 x_1!5 x_1!6 x_2!1 x_2!2 x_2!3 x_2!4 x_2!5 x_2!6
End
